14008
1 1 1 1 1 1 1 1 1 1
2 1 0 6 3 5 7 7 8 9 4 4 4 6 9 7 9 7 6 7 3 7 3 7 7 8 1 8 7 8 1 6 2 7 7 0 3 9 8 7 3 6 1 7 0 2 7 7 5 7 0 4 1 0 3 7 2 6 8 8 6 7 0 3 8 0 6 7 4 5 0 1 3 9 2 6 3 5 7 7 0 0 0 2 7 1 9 7 8 5